21406.0
1 0 1 1 1 0 1 1 0 1 1 0 1 0 0 0 1 0 0 1 1 1 1 1 1 1 0 1 1 0 
19 61 81 98 105 118 129 151 153 176 188 

4 29 87 94 126 145 156 175 180 182 190 
13 16 46 64 95 109 136 137 158 159 160 168 
10 28 32 43 60 84 104 106 111 167 174 178 193 

35 42 55 86 91 97 183 192 199 
0 15 40 59 62 70 89 103 117 194 196 

37 41 57 73 82 120 124 135 185 
12 24 80 85 139 162 173 177 179 198 

5 71 113 114 127 140 142 184 195 



21 33 39 51 53 79 125 157 


1 27 30 31 45 48 67 72 110 123 128 172 
17 36 44 49 54 63 76 78 115 119 133 154 171 
2 6 47 101 147 169 181 189 191 197 
8 18 58 108 141 
22 66 74 75 77 134 152 164 166 170 187 
23 38 50 52 107 131 146 150 163 
56 65 69 83 92 93 102 121 132 143 144 149 

3 7 20 25 26 34 88 112 148 161 165 
9 11 14 68 90 96 99 100 116 122 130 138 155 186 

